p edge 358 632
e 1 19 1
e 1 2 1
e 2 20 1
e 2 3 1
e 3 21 1
e 3 4 1
e 4 22 1
e 4 5 1
e 5 23 1
e 5 6 1
e 6 24 1
e 6 7 1
e 7 25 1
e 7 8 1
e 8 26 1
e 8 9 1
e 9 27 1
e 9 10 1
e 10 28 1
e 10 11 1
e 11 29 1
e 11 12 1
e 12 30 1
e 12 13 1
e 13 31 1
e 13 14 1
e 14 32 1
e 14 15 1
e 15 33 1
e 15 16 1
e 16 34 1
e 16 17 1
e 17 35 1
e 17 18 1
e 18 36 1
e 19 40 1
e 19 20 1
e 20 41 1
e 20 21 1
e 21 42 1
e 21 22 1
e 22 43 1
e 22 23 1
e 23 44 1
e 23 24 1
e 24 45 1
e 24 25 1
e 25 46 1
e 25 26 1
e 26 47 1
e 26 27 1
e 27 48 1
e 27 28 1
e 28 49 1
e 28 29 1
e 29 50 1
e 29 30 1
e 30 51 1
e 30 31 1
e 31 52 1
e 31 32 1
e 32 53 1
e 32 33 1
e 33 54 1
e 33 34 1
e 34 55 1
e 34 35 1
e 35 56 1
e 35 36 1
e 36 57 1
e 36 37 1
e 37 58 1
e 37 38 1
e 38 59 1
e 39 60 1
e 39 40 1
e 40 61 1
e 40 41 1
e 41 62 1
e 41 42 1
e 42 63 1
e 42 43 1
e 43 64 1
e 43 44 1
e 44 65 1
e 44 45 1
e 45 66 1
e 45 46 1
e 46 67 1
e 46 47 1
e 47 68 1
e 47 48 1
e 48 69 1
e 48 49 1
e 49 70 1
e 49 50 1
e 50 71 1
e 50 51 1
e 51 72 1
e 51 52 1
e 52 73 1
e 52 53 1
e 53 74 1
e 53 54 1
e 54 75 1
e 54 55 1
e 55 76 1
e 55 56 1
e 56 77 1
e 56 57 1
e 57 78 1
e 57 58 1
e 58 79 1
e 58 59 1
e 59 80 1
e 60 61 1
e 61 81 1
e 61 62 1
e 62 82 1
e 62 63 1
e 63 83 1
e 63 64 1
e 64 84 1
e 64 65 1
e 65 85 1
e 65 66 1
e 66 86 1
e 66 67 1
e 67 87 1
e 67 68 1
e 68 88 1
e 68 69 1
e 69 89 1
e 69 70 1
e 70 90 1
e 70 71 1
e 71 91 1
e 71 72 1
e 72 92 1
e 72 73 1
e 73 93 1
e 73 74 1
e 74 94 1
e 74 75 1
e 75 95 1
e 75 76 1
e 76 96 1
e 76 77 1
e 77 97 1
e 77 78 1
e 78 98 1
e 78 79 1
e 79 99 1
e 79 80 1
e 80 100 1
e 81 101 1
e 81 82 1
e 82 102 1
e 82 83 1
e 83 103 1
e 83 84 1
e 84 104 1
e 84 85 1
e 85 105 1
e 85 86 1
e 86 87 1
e 87 88 1
e 88 89 1
e 89 90 1
e 90 91 1
e 91 106 1
e 91 92 1
e 92 107 1
e 92 93 1
e 93 108 1
e 93 94 1
e 94 109 1
e 94 95 1
e 95 110 1
e 95 96 1
e 96 111 1
e 96 97 1
e 97 112 1
e 97 98 1
e 98 113 1
e 98 99 1
e 99 114 1
e 99 100 1
e 100 115 1
e 101 116 1
e 101 102 1
e 102 117 1
e 102 103 1
e 103 118 1
e 103 104 1
e 104 119 1
e 104 105 1
e 105 120 1
e 106 121 1
e 106 107 1
e 107 122 1
e 107 108 1
e 108 123 1
e 108 109 1
e 109 124 1
e 109 110 1
e 110 111 1
e 111 125 1
e 111 112 1
e 112 126 1
e 112 113 1
e 113 127 1
e 113 114 1
e 114 128 1
e 114 115 1
e 115 129 1
e 116 117 1
e 117 118 1
e 118 130 1
e 118 119 1
e 119 131 1
e 119 120 1
e 120 132 1
e 121 122 1
e 122 123 1
e 123 133 1
e 123 124 1
e 125 126 1
e 126 134 1
e 126 127 1
e 127 135 1
e 127 128 1
e 128 136 1
e 128 129 1
e 129 137 1
e 130 138 1
e 130 131 1
e 131 139 1
e 131 132 1
e 132 140 1
e 134 141 1
e 134 135 1
e 135 142 1
e 135 136 1
e 136 143 1
e 136 137 1
e 137 144 1
e 138 145 1
e 138 139 1
e 139 146 1
e 139 140 1
e 140 147 1
e 141 148 1
e 141 142 1
e 142 149 1
e 142 143 1
e 143 150 1
e 143 144 1
e 144 151 1
e 145 152 1
e 145 146 1
e 146 153 1
e 146 147 1
e 147 154 1
e 148 155 1
e 148 149 1
e 149 156 1
e 149 150 1
e 150 157 1
e 150 151 1
e 151 158 1
e 152 153 1
e 153 154 1
e 155 159 1
e 155 156 1
e 156 160 1
e 156 157 1
e 157 161 1
e 157 158 1
e 158 162 1
e 159 163 1
e 159 160 1
e 160 164 1
e 160 161 1
e 161 165 1
e 161 162 1
e 162 166 1
e 163 167 1
e 163 164 1
e 164 168 1
e 164 165 1
e 165 169 1
e 165 166 1
e 166 170 1
e 167 172 1
e 167 168 1
e 168 173 1
e 168 169 1
e 169 174 1
e 169 170 1
e 170 175 1
e 171 177 1
e 171 172 1
e 172 178 1
e 172 173 1
e 173 179 1
e 173 174 1
e 174 180 1
e 174 175 1
e 175 181 1
e 176 192 1
e 176 177 1
e 177 193 1
e 177 178 1
e 178 194 1
e 178 179 1
e 179 195 1
e 179 180 1
e 180 196 1
e 180 181 1
e 181 197 1
e 182 183 1
e 183 198 1
e 183 184 1
e 184 199 1
e 184 185 1
e 185 200 1
e 185 186 1
e 186 201 1
e 186 187 1
e 187 202 1
e 187 188 1
e 188 203 1
e 188 189 1
e 189 204 1
e 189 190 1
e 190 205 1
e 190 191 1
e 191 206 1
e 191 192 1
e 192 207 1
e 192 193 1
e 193 208 1
e 193 194 1
e 194 209 1
e 194 195 1
e 195 210 1
e 195 196 1
e 196 197 1
e 198 212 1
e 198 199 1
e 199 213 1
e 199 200 1
e 200 214 1
e 200 201 1
e 201 215 1
e 201 202 1
e 202 216 1
e 202 203 1
e 203 217 1
e 203 204 1
e 204 218 1
e 204 205 1
e 205 219 1
e 205 206 1
e 206 220 1
e 206 207 1
e 207 221 1
e 207 208 1
e 208 222 1
e 208 209 1
e 209 223 1
e 209 210 1
e 210 224 1
e 211 226 1
e 211 212 1
e 212 227 1
e 212 213 1
e 213 228 1
e 213 214 1
e 214 229 1
e 214 215 1
e 215 230 1
e 215 216 1
e 216 231 1
e 216 217 1
e 217 232 1
e 217 218 1
e 218 233 1
e 218 219 1
e 219 234 1
e 219 220 1
e 220 235 1
e 220 221 1
e 221 236 1
e 221 222 1
e 222 237 1
e 222 223 1
e 223 238 1
e 223 224 1
e 224 239 1
e 225 240 1
e 225 226 1
e 226 241 1
e 226 227 1
e 227 242 1
e 227 228 1
e 228 243 1
e 228 229 1
e 229 244 1
e 229 230 1
e 230 245 1
e 230 231 1
e 231 246 1
e 231 232 1
e 232 247 1
e 232 233 1
e 233 248 1
e 233 234 1
e 234 249 1
e 234 235 1
e 235 250 1
e 235 236 1
e 236 251 1
e 236 237 1
e 237 252 1
e 237 238 1
e 238 253 1
e 238 239 1
e 240 254 1
e 240 241 1
e 241 255 1
e 241 242 1
e 242 256 1
e 242 243 1
e 243 257 1
e 243 244 1
e 244 258 1
e 244 245 1
e 245 259 1
e 245 246 1
e 246 260 1
e 246 247 1
e 247 261 1
e 247 248 1
e 248 262 1
e 248 249 1
e 249 263 1
e 249 250 1
e 250 264 1
e 250 251 1
e 251 265 1
e 251 252 1
e 252 266 1
e 252 253 1
e 253 267 1
e 254 268 1
e 254 255 1
e 255 269 1
e 255 256 1
e 256 270 1
e 256 257 1
e 257 271 1
e 257 258 1
e 258 272 1
e 258 259 1
e 259 273 1
e 259 260 1
e 260 274 1
e 260 261 1
e 261 275 1
e 261 262 1
e 262 276 1
e 262 263 1
e 263 277 1
e 263 264 1
e 264 278 1
e 264 265 1
e 265 279 1
e 265 266 1
e 266 280 1
e 266 267 1
e 267 281 1
e 268 284 1
e 268 269 1
e 269 285 1
e 269 270 1
e 270 286 1
e 270 271 1
e 271 287 1
e 271 272 1
e 272 288 1
e 272 273 1
e 273 289 1
e 273 274 1
e 274 290 1
e 274 275 1
e 275 291 1
e 275 276 1
e 276 292 1
e 276 277 1
e 277 293 1
e 277 278 1
e 278 294 1
e 278 279 1
e 279 295 1
e 279 280 1
e 280 296 1
e 280 281 1
e 281 297 1
e 282 298 1
e 283 300 1
e 284 301 1
e 284 285 1
e 285 302 1
e 285 286 1
e 286 303 1
e 286 287 1
e 287 304 1
e 287 288 1
e 288 305 1
e 288 289 1
e 289 306 1
e 289 290 1
e 290 307 1
e 290 291 1
e 291 308 1
e 291 292 1
e 292 309 1
e 292 293 1
e 293 310 1
e 293 294 1
e 294 311 1
e 294 295 1
e 295 312 1
e 295 296 1
e 296 313 1
e 296 297 1
e 297 314 1
e 298 299 1
e 299 300 1
e 300 317 1
e 301 319 1
e 301 302 1
e 302 320 1
e 302 303 1
e 303 321 1
e 303 304 1
e 304 322 1
e 304 305 1
e 305 323 1
e 305 306 1
e 306 324 1
e 306 307 1
e 307 325 1
e 307 308 1
e 308 326 1
e 308 309 1
e 309 327 1
e 309 310 1
e 310 328 1
e 310 311 1
e 311 329 1
e 311 312 1
e 312 330 1
e 312 313 1
e 313 331 1
e 313 314 1
e 314 332 1
e 314 315 1
e 315 333 1
e 316 335 1
e 317 318 1
e 318 319 1
e 319 320 1
e 320 321 1
e 321 336 1
e 321 322 1
e 322 337 1
e 322 323 1
e 323 338 1
e 323 324 1
e 324 339 1
e 324 325 1
e 325 340 1
e 325 326 1
e 326 341 1
e 326 327 1
e 327 342 1
e 327 328 1
e 328 343 1
e 328 329 1
e 329 344 1
e 329 330 1
e 330 345 1
e 330 331 1
e 331 332 1
e 332 333 1
e 333 334 1
e 334 335 1
e 336 337 1
e 337 346 1
e 337 338 1
e 338 347 1
e 338 339 1
e 339 348 1
e 339 340 1
e 340 349 1
e 340 341 1
e 341 350 1
e 341 342 1
e 342 351 1
e 342 343 1
e 343 352 1
e 343 344 1
e 344 353 1
e 344 345 1
e 345 354 1
e 346 347 1
e 347 348 1
e 348 349 1
e 349 355 1
e 349 350 1
e 350 356 1
e 350 351 1
e 351 352 1
e 352 353 1
e 353 354 1
e 355 357 1
e 355 356 1
e 356 358 1
e 357 358 1